7026.0
1 1 1 1 1 1 1 1 0 1 
5 6 4 1 7 9 3 7 5 3 4 6 2 6 2 7 7 3 0 6 6 1 4 1 6 5 5 4 5 5 0 0 0 0 3 9 2 6 6 9 2 7 3 3 3 5 0 5 6 4 1 1 6 6 9 7 2 3 3 3 0 0 1 5 0 6 6 6 4 4 0 4 4 0 7 7 2 2 6 5 7 2 2 7 9 9 9 9 9 2 